12° run output:
{
    "Function": "euclidB300.tsp",
    "Problem dimension": [
        263,
        130,
        82,
        295,
        160,
        166,
        25,
        152,
        247,
        272,
        267,
        149,
        290,
        36,
        133,
        245,
        197,
        10,
        72,
        5,
        253,
        199,
        125,
        217,
        0,
        185,
        256,
        254,
        286,
        167,
        37,
        211,
        182,
        208,
        90,
        81,
        4,
        170,
        26,
        251,
        242,
        163,
        17,
        244,
        135,
        188,
        32,
        261,
        265,
        191,
        29,
        146,
        180,
        92,
        293,
        294,
        119,
        205,
        112,
        76,
        13,
        178,
        86,
        158,
        102,
        126,
        63,
        164,
        35,
        43,
        266,
        212,
        227,
        134,
        186,
        279,
        138,
        66,
        99,
        288,
        131,
        53,
        75,
        229,
        260,
        210,
        237,
        124,
        276,
        97,
        69,
        44,
        221,
        94,
        139,
        195,
        58,
        80,
        85,
        84,
        74,
        236,
        79,
        148,
        31,
        123,
        136,
        2,
        48,
        95,
        28,
        118,
        6,
        56,
        87,
        67,
        232,
        154,
        196,
        143,
        100,
        151,
        115,
        33,
        111,
        129,
        22,
        34,
        291,
        213,
        77,
        71,
        264,
        179,
        172,
        270,
        104,
        238,
        39,
        203,
        106,
        194,
        62,
        218,
        121,
        30,
        275,
        175,
        60,
        153,
        54,
        50,
        18,
        223,
        59,
        269,
        137,
        183,
        190,
        61,
        287,
        296,
        89,
        207,
        142,
        150,
        226,
        235,
        292,
        105,
        20,
        15,
        233,
        73,
        27,
        225,
        230,
        55,
        278,
        184,
        177,
        19,
        21,
        268,
        187,
        107,
        209,
        259,
        258,
        252,
        281,
        3,
        145,
        113,
        91,
        159,
        239,
        204,
        157,
        47,
        289,
        224,
        257,
        132,
        248,
        57,
        64,
        240,
        7,
        9,
        234,
        271,
        202,
        250,
        155,
        83,
        49,
        140,
        216,
        193,
        156,
        114,
        214,
        109,
        110,
        280,
        116,
        41,
        122,
        93,
        144,
        169,
        192,
        147,
        42,
        200,
        282,
        16,
        228,
        249,
        283,
        70,
        215,
        8,
        173,
        246,
        38,
        255,
        219,
        11,
        198,
        161,
        98,
        162,
        201,
        241,
        45,
        101,
        174,
        88,
        206,
        284,
        120,
        24,
        23,
        96,
        243,
        277,
        262,
        46,
        128,
        165,
        65,
        176,
        1,
        231,
        189,
        273,
        12,
        181,
        297,
        222,
        14,
        103,
        52,
        298,
        168,
        141,
        274,
        171,
        127,
        220,
        299,
        108,
        40,
        117,
        285,
        78,
        68,
        51
    ],
    "Global Optimum": 0,
    "Algorithm": "Genetic algorithm",
    "Parameters": {
        "population": 30,
        "offspring": 30,
        "mutation probability": 0.0033333333333333335,
        "crossover probability": 0.9
    },
    "Fitness": 309458,
    "Solution": [
        263,
        130,
        82,
        295,
        160,
        166,
        25,
        152,
        247,
        272,
        267,
        149,
        290,
        36,
        133,
        245,
        197,
        10,
        72,
        5,
        253,
        199,
        125,
        217,
        0,
        185,
        256,
        254,
        286,
        167,
        37,
        211,
        182,
        208,
        90,
        81,
        4,
        170,
        26,
        251,
        242,
        163,
        17,
        244,
        135,
        188,
        32,
        261,
        265,
        191,
        29,
        146,
        180,
        92,
        293,
        294,
        119,
        205,
        112,
        76,
        13,
        178,
        86,
        158,
        102,
        126,
        63,
        164,
        35,
        43,
        266,
        212,
        227,
        134,
        186,
        279,
        138,
        66,
        99,
        288,
        131,
        53,
        75,
        229,
        260,
        210,
        237,
        124,
        276,
        97,
        69,
        44,
        221,
        94,
        139,
        195,
        58,
        80,
        85,
        84,
        74,
        236,
        79,
        148,
        31,
        123,
        136,
        2,
        48,
        95,
        28,
        118,
        6,
        56,
        87,
        67,
        232,
        154,
        196,
        143,
        100,
        151,
        115,
        33,
        111,
        129,
        22,
        34,
        291,
        213,
        77,
        71,
        264,
        179,
        172,
        270,
        104,
        238,
        39,
        203,
        106,
        194,
        62,
        218,
        121,
        30,
        275,
        175,
        60,
        153,
        54,
        50,
        18,
        223,
        59,
        269,
        137,
        183,
        190,
        61,
        287,
        296,
        89,
        207,
        142,
        150,
        226,
        235,
        292,
        105,
        20,
        15,
        233,
        73,
        27,
        225,
        230,
        55,
        278,
        184,
        177,
        19,
        21,
        268,
        187,
        107,
        209,
        259,
        258,
        252,
        281,
        3,
        145,
        113,
        91,
        159,
        239,
        204,
        157,
        47,
        289,
        224,
        257,
        132,
        248,
        57,
        64,
        240,
        7,
        9,
        234,
        271,
        202,
        250,
        155,
        83,
        49,
        140,
        216,
        193,
        156,
        114,
        214,
        109,
        110,
        280,
        116,
        41,
        122,
        93,
        144,
        169,
        192,
        147,
        42,
        200,
        282,
        16,
        228,
        249,
        283,
        70,
        215,
        8,
        173,
        246,
        38,
        255,
        219,
        11,
        198,
        161,
        98,
        162,
        201,
        241,
        45,
        101,
        174,
        88,
        206,
        284,
        120,
        24,
        23,
        96,
        243,
        277,
        262,
        46,
        128,
        165,
        65,
        176,
        1,
        231,
        189,
        273,
        12,
        181,
        297,
        222,
        14,
        103,
        52,
        298,
        168,
        141,
        274,
        171,
        127,
        220,
        299,
        108,
        40,
        117,
        285,
        78,
        68,
        51
    ],
    "Nb of functions evaluations": 200010,
    "Computational time in seconds": 413.2382287979126,
    "Stopping criterion in evaluations": 200000
}